<number of tasks>
20

<cycle time>
1000

<order strength>
0,8


<task times>
1 439
2 373
3 130
4 136
5 348
6 144
7 494
8 219
9 201
10 386
11 167
12 208
13 53
14 529
15 213
16 153
17 325
18 76
19 42
20 91

<precedence relations>
1,4
1,5
2,4
2,5
3,4
3,5
4,6
4,7
4,8
5,6
5,7
5,8
6,9
7,9
8,15
8,16
8,17
9,10
9,11
10,12
10,13
11,12
11,14
12,15
12,16
12,17
13,16
14,15
14,19
17,18
18,19
18,20

<end>
